% demand
num_movements = 35;
loading_factor = [1650, 800, 1150, 1850, 1550, 1850, 1650, 800, 1650, 800, 1850, 1450, 850, 1450, 1650, 1050, 1000, 1450, 1550, 1750, 1750, 950, 900, 1650, 1000, 2000, 1650, 1050, 1850, 1400, 1900, 1150, 1600, 1000, 1100];
pickup_time = [0, 0, 0, 0, 0, 1, 1, 1, 3, 4, 4, 4, 4, 4, 5, 5, 5, 5, 6, 6, 6, 6, 7, 8, 8, 8, 8, 9, 9, 9, 12, 12, 12, 12, 12];
delivery_time = [1, 1, 2, 1, 2, 4, 2, 2, 4, 5, 5, 5, 5, 6, 6, 6, 8, 6, 7, 8, 8, 7, 8, 9, 10, 9, 11, 10, 11, 10, 13, 13, 13, 13, 13];

% transporter definition
total_capacity = 7000;
num_decks = 3;
capacity = [3000, 1000, 3000];

% ways out of decks
num_ways_out = 1;
paths_out = array3d(decks, ways_out, decks, [
% ways out of deck d1
2, 3, 0, 

% ways out of deck d2
3, 0, 0, 

% ways out of deck d3
0, 0, 0,	

]);

